
100

99
100

99 98
100

98 97
99 100

98 97 96
99 100

97 95 96
98 100 99

97 95 96 94
98 100 99

96 95 93 94
97 98 99 100

96 95 93 94 92
97 98 99 100

95 94 93 91 92
96 97 99 100 98

95 94 93 91 92 90
96 97 99 100 98

94 92 93 91 89 90
95 97 96 100 98 99

94 92 93 91 89 90 88
95 97 96 100 98 99

93 92 90 91 89 87 88
94 97 95 100 98 99 96

93 92 90 91 89 87 88 86
94 97 95 100 98 99 96

92 91 90 86 89 87 88 85
93 94 95 97 98 99 96 100

92 91 90 86 89 87 88 85 84
93 94 95 97 98 99 96 100

91 89 90 86 83 87 88 85 84
92 93 95 94 98 99 96 100 97

91 89 90 86 83 87 88 85 84 82
92 93 95 94 98 99 96 100 97

90 89 88 86 83 87 81 85 84 82
91 92 95 94 93 99 96 100 97 98

90 89 88 86 83 87 81 85 84 82 80
91 92 95 94 93 99 96 100 97 98

89 86 88 85 83 87 81 79 84 82 80
90 91 95 94 92 99 96 100 97 98 93

89 86 88 85 83 87 81 79 84 82 80 78
90 91 95 94 92 99 96 100 97 98 93

88 86 87 85 83 78 81 79 84 82 80 77
89 91 90 94 92 95 96 100 97 98 93 99

88 86 87 85 83 78 81 79 84 82 80 77 76
89 91 90 94 92 95 96 100 97 98 93 99

87 86 81 85 83 78 75 79 84 82 80 77 76
88 91 89 94 92 90 96 100 97 98 93 99 95

87 86 81 85 83 78 75 79 84 82 80 77 76 74
88 91 89 94 92 90 96 100 97 98 93 99 95

86 85 81 84 83 78 75 79 73 82 80 77 76 74
87 91 88 94 92 90 89 100 97 98 93 99 95 96

86 85 81 84 83 78 75 79 73 82 80 77 76 74 72
87 91 88 94 92 90 89 100 97 98 93 99 95 96

85 84 81 79 83 78 75 71 73 82 80 77 76 74 72
86 91 87 94 92 90 88 100 97 98 93 99 95 96 89

85 84 81 79 83 78 75 71 73 82 80 77 76 74 72 70
86 91 87 94 92 90 88 100 97 98 93 99 95 96 89

84 83 81 79 82 78 75 71 73 69 80 77 76 74 72 70
85 86 87 91 92 90 88 94 97 98 93 99 95 96 89 100

84 83 81 79 82 78 75 71 73 69 80 77 76 74 72 70 68
85 86 87 91 92 90 88 94 97 98 93 99 95 96 89 100

83 82 81 79 80 78 75 71 73 69 67 77 76 74 72 70 68
84 85 87 86 92 90 88 91 97 98 93 99 95 96 89 100 94

83 82 81 79 80 78 75 71 73 69 67 77 76 74 72 70 68 66
84 85 87 86 92 90 88 91 97 98 93 99 95 96 89 100 94

82 80 81 79 69 78 75 71 73 65 67 77 76 74 72 70 68 66
83 84 87 85 92 90 88 91 86 98 93 99 95 96 89 100 94 97

82 80 81 79 69 78 75 71 73 65 67 77 76 74 72 70 68 66 64
83 84 87 85 92 90 88 91 86 98 93 99 95 96 89 100 94 97

81 80 78 79 69 77 75 71 73 65 67 63 76 74 72 70 68 66 64
82 83 87 84 92 90 88 91 85 98 93 99 95 96 89 100 94 97 86

81 80 78 79 69 77 75 71 73 65 67 63 76 74 72 70 68 66 64 62
82 83 87 84 92 90 88 91 85 98 93 99 95 96 89 100 94 97 86

80 79 78 73 69 77 75 71 66 65 67 63 76 74 72 70 68 61 64 62
81 82 87 84 83 90 88 91 85 92 93 99 95 96 89 100 94 97 86 98

80 79 78 73 69 77 75 71 66 65 67 63 76 74 72 70 68 61 64 62 60
81 82 87 84 83 90 88 91 85 92 93 99 95 96 89 100 94 97 86 98

79 73 78 71 69 77 75 70 66 65 67 63 76 74 72 59 68 61 64 62 60
80 81 87 84 82 90 88 91 85 83 93 99 95 96 89 100 94 97 86 98 92

79 73 78 71 69 77 75 70 66 65 67 63 76 74 72 59 68 61 64 62 60 58
80 81 87 84 82 90 88 91 85 83 93 99 95 96 89 100 94 97 86 98 92

78 73 77 71 69 76 75 70 66 65 67 63 57 74 72 59 68 61 64 62 60 58
79 80 87 84 81 90 88 91 85 83 82 99 95 96 89 100 94 97 86 98 92 93

78 73 77 71 69 76 75 70 66 65 67 63 57 74 72 59 68 61 64 62 60 58 56
79 80 87 84 81 90 88 91 85 83 82 99 95 96 89 100 94 97 86 98 92 93

77 73 76 71 69 63 75 70 66 65 67 55 57 74 72 59 68 61 64 62 60 58 56
78 79 87 84 80 90 88 91 85 83 81 99 95 96 89 100 94 97 86 98 92 93 82

77 73 76 71 69 63 75 70 66 65 67 55 57 74 72 59 68 61 64 62 60 58 56 54
78 79 87 84 80 90 88 91 85 83 81 99 95 96 89 100 94 97 86 98 92 93 82

76 73 75 71 69 63 74 70 66 65 67 55 57 53 72 59 68 61 64 62 60 58 56 54
77 79 78 84 80 87 88 91 85 83 81 90 95 96 89 100 94 97 86 98 92 93 82 99

76 73 75 71 69 63 74 70 66 65 67 55 57 53 72 59 68 61 64 62 60 58 56 54 52
77 79 78 84 80 87 88 91 85 83 81 90 95 96 89 100 94 97 86 98 92 93 82 99

75 73 74 71 69 63 72 70 66 65 67 55 57 53 51 59 68 61 64 62 60 58 56 54 52
76 79 77 84 80 78 88 91 85 83 81 87 95 96 89 100 94 97 86 98 92 93 82 99 90

75 73 74 71 69 63 72 70 66 65 67 55 57 53 51 59 68 61 64 62 60 58 56 54 52 50
76 79 77 84 80 78 88 91 85 83 81 87 95 96 89 100 94 97 86 98 92 93 82 99 90

74 73 72 71 69 63 53 70 66 65 67 55 57 49 51 59 68 61 64 62 60 58 56 54 52 50
75 79 76 84 80 77 88 91 85 83 81 87 78 96 89 100 94 97 86 98 92 93 82 99 90 95

74 73 72 71 69 63 53 70 66 65 67 55 57 49 51 59 68 61 64 62 60 58 56 54 52 50 48
75 79 76 84 80 77 88 91 85 83 81 87 78 96 89 100 94 97 86 98 92 93 82 99 90 95

73 71 72 70 69 63 53 68 66 65 67 55 57 49 51 59 47 61 64 62 60 58 56 54 52 50 48
74 79 75 84 80 76 88 91 85 83 81 87 77 96 89 100 94 97 86 98 92 93 82 99 90 95 78

73 71 72 70 69 63 53 68 66 65 67 55 57 49 51 59 47 61 64 62 60 58 56 54 52 50 48 46
74 79 75 84 80 76 88 91 85 83 81 87 77 96 89 100 94 97 86 98 92 93 82 99 90 95 78

72 71 63 70 69 57 53 68 66 65 67 55 50 49 51 59 47 61 64 62 60 58 56 54 52 45 48 46
73 79 74 84 80 76 75 91 85 83 81 87 77 88 89 100 94 97 86 98 92 93 82 99 90 95 78 96

72 71 63 70 69 57 53 68 66 65 67 55 50 49 51 59 47 61 64 62 60 58 56 54 52 45 48 46 44
73 79 74 84 80 76 75 91 85 83 81 87 77 88 89 100 94 97 86 98 92 93 82 99 90 95 78 96

71 70 63 68 69 57 53 59 66 65 67 55 50 49 51 43 47 61 64 62 60 58 56 54 52 45 48 46 44
72 79 73 84 80 76 74 91 85 83 81 87 77 75 89 100 94 97 86 98 92 93 82 99 90 95 78 96 88

71 70 63 68 69 57 53 59 66 65 67 55 50 49 51 43 47 61 64 62 60 58 56 54 52 45 48 46 44 42
72 79 73 84 80 76 74 91 85 83 81 87 77 75 89 100 94 97 86 98 92 93 82 99 90 95 78 96 88

70 69 63 68 67 57 53 59 66 65 58 55 50 49 51 43 47 61 64 62 60 41 56 54 52 45 48 46 44 42
71 79 72 84 80 76 73 91 85 83 81 87 77 75 74 100 94 97 86 98 92 93 82 99 90 95 78 96 88 89

70 69 63 68 67 57 53 59 66 65 58 55 50 49 51 43 47 61 64 62 60 41 56 54 52 45 48 46 44 42 40
71 79 72 84 80 76 73 91 85 83 81 87 77 75 74 100 94 97 86 98 92 93 82 99 90 95 78 96 88 89

69 68 63 66 67 57 53 59 64 65 58 55 50 49 51 43 47 61 39 62 60 41 56 54 52 45 48 46 44 42 40
70 79 71 84 80 76 72 91 85 83 81 87 77 75 73 100 94 97 86 98 92 93 82 99 90 95 78 96 88 89 74

69 68 63 66 67 57 53 59 64 65 58 55 50 49 51 43 47 61 39 62 60 41 56 54 52 45 48 46 44 42 40 38
70 79 71 84 80 76 72 91 85 83 81 87 77 75 73 100 94 97 86 98 92 93 82 99 90 95 78 96 88 89 74

68 67 63 66 65 57 53 59 64 62 58 55 50 49 51 43 47 61 39 37 60 41 56 54 52 45 48 46 44 42 40 38
69 70 71 79 80 76 72 84 85 83 81 87 77 75 73 91 94 97 86 98 92 93 82 99 90 95 78 96 88 89 74 100

68 67 63 66 65 57 53 59 64 62 58 55 50 49 51 43 47 61 39 37 60 41 56 54 52 45 48 46 44 42 40 38 36
69 70 71 79 80 76 72 84 85 83 81 87 77 75 73 91 94 97 86 98 92 93 82 99 90 95 78 96 88 89 74 100

67 66 63 64 65 57 53 59 61 62 58 55 50 49 51 43 47 35 39 37 60 41 56 54 52 45 48 46 44 42 40 38 36
68 69 71 70 80 76 72 79 85 83 81 87 77 75 73 84 94 97 86 98 92 93 82 99 90 95 78 96 88 89 74 100 91

67 66 63 64 65 57 53 59 61 62 58 55 50 49 51 43 47 35 39 37 60 41 56 54 52 45 48 46 44 42 40 38 36 34
68 69 71 70 80 76 72 79 85 83 81 87 77 75 73 84 94 97 86 98 92 93 82 99 90 95 78 96 88 89 74 100 91

66 65 63 64 62 57 53 59 61 60 58 55 50 49 51 43 47 35 39 37 33 41 56 54 52 45 48 46 44 42 40 38 36 34
67 68 71 69 80 76 72 70 85 83 81 87 77 75 73 84 79 97 86 98 92 93 82 99 90 95 78 96 88 89 74 100 91 94

66 65 63 64 62 57 53 59 61 60 58 55 50 49 51 43 47 35 39 37 33 41 56 54 52 45 48 46 44 42 40 38 36 34 32
67 68 71 69 80 76 72 70 85 83 81 87 77 75 73 84 79 97 86 98 92 93 82 99 90 95 78 96 88 89 74 100 91 94

65 64 63 61 62 57 53 59 39 60 58 55 50 49 51 43 47 35 31 37 33 41 56 54 52 45 48 46 44 42 40 38 36 34 32
66 67 71 68 80 76 72 69 85 83 81 87 77 75 73 84 70 97 86 98 92 93 82 99 90 95 78 96 88 89 74 100 91 94 79

65 64 63 61 62 57 53 59 39 60 58 55 50 49 51 43 47 35 31 37 33 41 56 54 52 45 48 46 44 42 40 38 36 34 32 30
66 67 71 68 80 76 72 69 85 83 81 87 77 75 73 84 70 97 86 98 92 93 82 99 90 95 78 96 88 89 74 100 91 94 79

64 62 63 61 60 57 53 59 39 37 58 55 50 49 51 43 47 35 31 29 33 41 56 54 52 45 48 46 44 42 40 38 36 34 32 30
65 66 71 67 80 76 72 69 68 83 81 87 77 75 73 84 70 85 86 98 92 93 82 99 90 95 78 96 88 89 74 100 91 94 79 97

64 62 63 61 60 57 53 59 39 37 58 55 50 49 51 43 47 35 31 29 33 41 56 54 52 45 48 46 44 42 40 38 36 34 32 30 28
65 66 71 67 80 76 72 69 68 83 81 87 77 75 73 84 70 85 86 98 92 93 82 99 90 95 78 96 88 89 74 100 91 94 79 97

63 62 57 61 60 55 53 59 39 37 58 54 50 49 51 43 47 35 31 29 33 41 56 27 52 45 48 46 44 42 40 38 36 34 32 30 28
64 65 71 66 80 76 72 69 67 83 81 87 77 75 73 84 70 68 86 98 92 93 82 99 90 95 78 96 88 89 74 100 91 94 79 97 85

63 62 57 61 60 55 53 59 39 37 58 54 50 49 51 43 47 35 31 29 33 41 56 27 52 45 48 46 44 42 40 38 36 34 32 30 28 26
64 65 71 66 80 76 72 69 67 83 81 87 77 75 73 84 70 68 86 98 92 93 82 99 90 95 78 96 88 89 74 100 91 94 79 97 85

62 61 57 59 60 55 53 47 39 37 58 54 50 49 51 43 34 35 31 29 33 41 56 27 52 45 48 46 44 42 40 38 36 25 32 30 28 26
63 64 71 65 80 76 72 69 66 83 81 87 77 75 73 84 70 68 67 98 92 93 82 99 90 95 78 96 88 89 74 100 91 94 79 97 85 86

62 61 57 59 60 55 53 47 39 37 58 54 50 49 51 43 34 35 31 29 33 41 56 27 52 45 48 46 44 42 40 38 36 25 32 30 28 26 24
63 64 71 65 80 76 72 69 66 83 81 87 77 75 73 84 70 68 67 98 92 93 82 99 90 95 78 96 88 89 74 100 91 94 79 97 85 86

61 60 57 59 58 55 53 47 39 37 56 54 50 49 51 43 34 35 31 29 33 41 23 27 52 45 48 46 44 42 40 38 36 25 32 30 28 26 24
62 63 71 64 80 76 72 69 65 83 81 87 77 75 73 84 70 68 66 98 92 93 82 99 90 95 78 96 88 89 74 100 91 94 79 97 85 86 67

61 60 57 59 58 55 53 47 39 37 56 54 50 49 51 43 34 35 31 29 33 41 23 27 52 45 48 46 44 42 40 38 36 25 32 30 28 26 24 22
62 63 71 64 80 76 72 69 65 83 81 87 77 75 73 84 70 68 66 98 92 93 82 99 90 95 78 96 88 89 74 100 91 94 79 97 85 86 67

60 59 57 47 58 55 53 43 39 37 56 54 50 49 51 38 34 35 31 29 33 41 23 27 52 45 48 46 44 42 40 21 36 25 32 30 28 26 24 22
61 62 71 64 63 76 72 69 65 80 81 87 77 75 73 84 70 68 66 83 92 93 82 99 90 95 78 96 88 89 74 100 91 94 79 97 85 86 67 98

60 59 57 47 58 55 53 43 39 37 56 54 50 49 51 38 34 35 31 29 33 41 23 27 52 45 48 46 44 42 40 21 36 25 32 30 28 26 24 22 20
61 62 71 64 63 76 72 69 65 80 81 87 77 75 73 84 70 68 66 83 92 93 82 99 90 95 78 96 88 89 74 100 91 94 79 97 85 86 67 98

59 58 57 47 56 55 53 43 39 37 41 54 50 49 51 38 34 35 31 29 33 19 23 27 52 45 48 46 44 42 40 21 36 25 32 30 28 26 24 22 20
60 61 71 64 62 76 72 69 65 63 81 87 77 75 73 84 70 68 66 80 92 93 82 99 90 95 78 96 88 89 74 100 91 94 79 97 85 86 67 98 83

59 58 57 47 56 55 53 43 39 37 41 54 50 49 51 38 34 35 31 29 33 19 23 27 52 45 48 46 44 42 40 21 36 25 32 30 28 26 24 22 20 18
60 61 71 64 62 76 72 69 65 63 81 87 77 75 73 84 70 68 66 80 92 93 82 99 90 95 78 96 88 89 74 100 91 94 79 97 85 86 67 98 83

58 56 57 47 41 55 53 43 39 37 23 54 50 49 51 38 34 35 31 29 33 19 17 27 52 45 48 46 44 42 40 21 36 25 32 30 28 26 24 22 20 18
59 60 71 64 61 76 72 69 65 62 81 87 77 75 73 84 70 68 66 80 63 93 82 99 90 95 78 96 88 89 74 100 91 94 79 97 85 86 67 98 83 92

58 56 57 47 41 55 53 43 39 37 23 54 50 49 51 38 34 35 31 29 33 19 17 27 52 45 48 46 44 42 40 21 36 25 32 30 28 26 24 22 20 18 16
59 60 71 64 61 76 72 69 65 62 81 87 77 75 73 84 70 68 66 80 63 93 82 99 90 95 78 96 88 89 74 100 91 94 79 97 85 86 67 98 83 92

57 56 55 47 41 54 53 43 39 37 23 52 50 49 51 38 34 35 31 29 33 19 17 27 15 45 48 46 44 42 40 21 36 25 32 30 28 26 24 22 20 18 16
58 59 71 64 60 76 72 69 65 61 81 87 77 75 73 84 70 68 66 80 62 93 82 99 90 95 78 96 88 89 74 100 91 94 79 97 85 86 67 98 83 92 63

57 56 55 47 41 54 53 43 39 37 23 52 50 49 51 38 34 35 31 29 33 19 17 27 15 45 48 46 44 42 40 21 36 25 32 30 28 26 24 22 20 18 16 14
58 59 71 64 60 76 72 69 65 61 81 87 77 75 73 84 70 68 66 80 62 93 82 99 90 95 78 96 88 89 74 100 91 94 79 97 85 86 67 98 83 92 63

56 47 55 43 41 54 53 38 39 37 23 52 50 49 51 36 34 35 31 29 33 19 17 27 15 45 48 46 44 42 40 21 13 25 32 30 28 26 24 22 20 18 16 14
57 58 71 64 59 76 72 69 65 61 60 87 77 75 73 84 70 68 66 80 62 81 82 99 90 95 78 96 88 89 74 100 91 94 79 97 85 86 67 98 83 92 63 93

56 47 55 43 41 54 53 38 39 37 23 52 50 49 51 36 34 35 31 29 33 19 17 27 15 45 48 46 44 42 40 21 13 25 32 30 28 26 24 22 20 18 16 14 12
57 58 71 64 59 76 72 69 65 61 60 87 77 75 73 84 70 68 66 80 62 81 82 99 90 95 78 96 88 89 74 100 91 94 79 97 85 86 67 98 83 92 63 93

55 47 54 43 41 52 53 38 39 37 23 27 50 49 51 36 34 35 31 29 33 19 17 11 15 45 48 46 44 42 40 21 13 25 32 30 28 26 24 22 20 18 16 14 12
56 57 71 64 58 76 72 69 65 61 59 87 77 75 73 84 70 68 66 80 62 60 82 99 90 95 78 96 88 89 74 100 91 94 79 97 85 86 67 98 83 92 63 93 81

55 47 54 43 41 52 53 38 39 37 23 27 50 49 51 36 34 35 31 29 33 19 17 11 15 45 48 46 44 42 40 21 13 25 32 30 28 26 24 22 20 18 16 14 12 10
56 57 71 64 58 76 72 69 65 61 59 87 77 75 73 84 70 68 66 80 62 60 82 99 90 95 78 96 88 89 74 100 91 94 79 97 85 86 67 98 83 92 63 93 81

54 47 53 43 41 52 51 38 39 37 23 27 50 49 42 36 34 35 31 29 33 19 17 11 15 45 48 46 44 9 40 21 13 25 32 30 28 26 24 22 20 18 16 14 12 10
55 56 71 64 57 76 72 69 65 61 58 87 77 75 73 84 70 68 66 80 62 60 59 99 90 95 78 96 88 89 74 100 91 94 79 97 85 86 67 98 83 92 63 93 81 82

54 47 53 43 41 52 51 38 39 37 23 27 50 49 42 36 34 35 31 29 33 19 17 11 15 45 48 46 44 9 40 21 13 25 32 30 28 26 24 22 20 18 16 14 12 10 8
55 56 71 64 57 76 72 69 65 61 58 87 77 75 73 84 70 68 66 80 62 60 59 99 90 95 78 96 88 89 74 100 91 94 79 97 85 86 67 98 83 92 63 93 81 82

53 47 52 43 41 50 51 38 39 37 23 27 48 49 42 36 34 35 31 29 33 19 17 11 15 45 7 46 44 9 40 21 13 25 32 30 28 26 24 22 20 18 16 14 12 10 8
54 55 71 64 56 76 72 69 65 61 57 87 77 75 73 84 70 68 66 80 62 60 58 99 90 95 78 96 88 89 74 100 91 94 79 97 85 86 67 98 83 92 63 93 81 82 59

53 47 52 43 41 50 51 38 39 37 23 27 48 49 42 36 34 35 31 29 33 19 17 11 15 45 7 46 44 9 40 21 13 25 32 30 28 26 24 22 20 18 16 14 12 10 8 6
54 55 71 64 56 76 72 69 65 61 57 87 77 75 73 84 70 68 66 80 62 60 58 99 90 95 78 96 88 89 74 100 91 94 79 97 85 86 67 98 83 92 63 93 81 82 59

52 47 51 43 41 50 49 38 39 37 23 27 48 46 42 36 34 35 31 29 33 19 17 11 15 45 7 5 44 9 40 21 13 25 32 30 28 26 24 22 20 18 16 14 12 10 8 6
53 55 54 64 56 71 72 69 65 61 57 76 77 75 73 84 70 68 66 80 62 60 58 87 90 95 78 96 88 89 74 100 91 94 79 97 85 86 67 98 83 92 63 93 81 82 59 99

52 47 51 43 41 50 49 38 39 37 23 27 48 46 42 36 34 35 31 29 33 19 17 11 15 45 7 5 44 9 40 21 13 25 32 30 28 26 24 22 20 18 16 14 12 10 8 6 4
53 55 54 64 56 71 72 69 65 61 57 76 77 75 73 84 70 68 66 80 62 60 58 87 90 95 78 96 88 89 74 100 91 94 79 97 85 86 67 98 83 92 63 93 81 82 59 99

51 47 50 43 41 48 49 38 39 37 23 27 45 46 42 36 34 35 31 29 33 19 17 11 15 3 7 5 44 9 40 21 13 25 32 30 28 26 24 22 20 18 16 14 12 10 8 6 4
52 55 53 64 56 54 72 69 65 61 57 71 77 75 73 84 70 68 66 80 62 60 58 76 90 95 78 96 88 89 74 100 91 94 79 97 85 86 67 98 83 92 63 93 81 82 59 99 87

51 47 50 43 41 48 49 38 39 37 23 27 45 46 42 36 34 35 31 29 33 19 17 11 15 3 7 5 44 9 40 21 13 25 32 30 28 26 24 22 20 18 16 14 12 10 8 6 4 2
52 55 53 64 56 54 72 69 65 61 57 71 77 75 73 84 70 68 66 80 62 60 58 76 90 95 78 96 88 89 74 100 91 94 79 97 85 86 67 98 83 92 63 93 81 82 59 99 87

50 47 49 43 41 48 46 38 39 37 23 27 45 44 42 36 34 35 31 29 33 19 17 11 15 3 7 5 1 9 40 21 13 25 32 30 28 26 24 22 20 18 16 14 12 10 8 6 4 2
51 55 52 64 56 53 72 69 65 61 57 54 77 75 73 84 70 68 66 80 62 60 58 76 71 95 78 96 88 89 74 100 91 94 79 97 85 86 67 98 83 92 63 93 81 82 59 99 87 90

